7
2147483647 83 19 50 77 66 9 
83 2147483647 22 100 48 46 28 
19 22 2147483647 43 34 21 92 
50 100 43 2147483647 40 46 38 
77 48 34 40 2147483647 50 67 
66 46 21 46 50 2147483647 92 
9 28 92 38 67 92 2147483647 
